# Factor graph made by ./createfg
# type = GRID
# states = 2
# factor type = ISINGUNIFORM
# n1 = 6
# n2 = 6
# options = [max_th=1,max_w=5,min_th=-1,min_w=-5]
# N = 36
# seed = 18116652826505311667
96

2
0 6
2 2
4
0  0.0959631
1    10.4207
2    10.4207
3  0.0959631

2
0 1
2 2
4
0  0.0954061
1    10.4815
2    10.4815
3  0.0954061

2
1 7
2 2
4
0   0.151659
1    6.59374
2    6.59374
3   0.151659

2
1 2
2 2
4
0    20.0444
1  0.0498892
2  0.0498892
3    20.0444

2
2 8
2 2
4
0    49.0052
1   0.020406
2   0.020406
3    49.0052

2
2 3
2 2
4
0   0.585397
1    1.70824
2    1.70824
3   0.585397

2
3 9
2 2
4
0   0.022488
1    44.4681
2    44.4681
3   0.022488

2
3 4
2 2
4
0   0.878924
1    1.13775
2    1.13775
3   0.878924

2
4 10
2 2
4
0    0.57299
1    1.74523
2    1.74523
3    0.57299

2
4 5
2 2
4
0  0.0114839
1    87.0782
2    87.0782
3  0.0114839

2
5 11
2 2
4
0    2.60069
1   0.384514
2   0.384514
3    2.60069

2
6 12
2 2
4
0    8.96252
1   0.111576
2   0.111576
3    8.96252

2
6 7
2 2
4
0     4.1007
1   0.243861
2   0.243861
3     4.1007

2
7 13
2 2
4
0    15.1104
1  0.0661796
2  0.0661796
3    15.1104

2
7 8
2 2
4
0    110.922
1 0.00901535
2 0.00901535
3    110.922

2
8 14
2 2
4
0  0.0109524
1    91.3041
2    91.3041
3  0.0109524

2
8 9
2 2
4
0  0.0128895
1    77.5824
2    77.5824
3  0.0128895

2
9 15
2 2
4
0    1.37694
1   0.726246
2   0.726246
3    1.37694

2
9 10
2 2
4
0     2.5116
1   0.398153
2   0.398153
3     2.5116

2
10 16
2 2
4
0     88.615
1  0.0112848
2  0.0112848
3     88.615

2
10 11
2 2
4
0    1.34957
1   0.740976
2   0.740976
3    1.34957

2
11 17
2 2
4
0  0.0259932
1    38.4716
2    38.4716
3  0.0259932

2
12 18
2 2
4
0  0.0348438
1    28.6995
2    28.6995
3  0.0348438

2
12 13
2 2
4
0    1.52382
1   0.656243
2   0.656243
3    1.52382

2
13 19
2 2
4
0    28.5734
1  0.0349976
2  0.0349976
3    28.5734

2
13 14
2 2
4
0  0.0715719
1     13.972
2     13.972
3  0.0715719

2
14 20
2 2
4
0    2.58927
1   0.386209
2   0.386209
3    2.58927

2
14 15
2 2
4
0  0.0374637
1    26.6925
2    26.6925
3  0.0374637

2
15 21
2 2
4
0  0.0120863
1    82.7385
2    82.7385
3  0.0120863

2
15 16
2 2
4
0  0.0282927
1    35.3448
2    35.3448
3  0.0282927

2
16 22
2 2
4
0    2.74702
1    0.36403
2    0.36403
3    2.74702

2
16 17
2 2
4
0     2.7474
1    0.36398
2    0.36398
3     2.7474

2
17 23
2 2
4
0   0.129348
1    7.73109
2    7.73109
3   0.129348

2
18 24
2 2
4
0     40.236
1  0.0248533
2  0.0248533
3     40.236

2
18 19
2 2
4
0    6.97408
1   0.143388
2   0.143388
3    6.97408

2
19 25
2 2
4
0  0.0171709
1     58.238
2     58.238
3  0.0171709

2
19 20
2 2
4
0  0.0526603
1    18.9896
2    18.9896
3  0.0526603

2
20 26
2 2
4
0    1.03365
1   0.967443
2   0.967443
3    1.03365

2
20 21
2 2
4
0   0.659325
1     1.5167
2     1.5167
3   0.659325

2
21 27
2 2
4
0  0.0861949
1    11.6016
2    11.6016
3  0.0861949

2
21 22
2 2
4
0   0.163751
1    6.10682
2    6.10682
3   0.163751

2
22 28
2 2
4
0    29.2559
1  0.0341811
2  0.0341811
3    29.2559

2
22 23
2 2
4
0   0.685111
1    1.45962
2    1.45962
3   0.685111

2
23 29
2 2
4
0    34.5475
1  0.0289457
2  0.0289457
3    34.5475

2
24 30
2 2
4
0   0.020042
1    49.8951
2    49.8951
3   0.020042

2
24 25
2 2
4
0   0.228592
1     4.3746
2     4.3746
3   0.228592

2
25 31
2 2
4
0  0.0351404
1    28.4573
2    28.4573
3  0.0351404

2
25 26
2 2
4
0 0.00812502
1    123.077
2    123.077
3 0.00812502

2
26 32
2 2
4
0   0.103944
1    9.62055
2    9.62055
3   0.103944

2
26 27
2 2
4
0 0.00754508
1    132.537
2    132.537
3 0.00754508

2
27 33
2 2
4
0    6.47976
1   0.154327
2   0.154327
3    6.47976

2
27 28
2 2
4
0  0.0303038
1    32.9992
2    32.9992
3  0.0303038

2
28 34
2 2
4
0   0.077948
1    12.8291
2    12.8291
3   0.077948

2
28 29
2 2
4
0    1.78841
1   0.559156
2   0.559156
3    1.78841

2
29 35
2 2
4
0  0.0591137
1    16.9165
2    16.9165
3  0.0591137

2
30 31
2 2
4
0    0.01816
1    55.0661
2    55.0661
3    0.01816

2
31 32
2 2
4
0    1.14229
1   0.875433
2   0.875433
3    1.14229

2
32 33
2 2
4
0  0.0746204
1    13.4012
2    13.4012
3  0.0746204

2
33 34
2 2
4
0   0.423681
1    2.36027
2    2.36027
3   0.423681

2
34 35
2 2
4
0    93.4965
1  0.0106956
2  0.0106956
3    93.4965

1
0
2
2
0   0.947607
1    1.05529

1
1
2
2
0    2.41311
1   0.414403

1
2
2
2
0   0.994789
1    1.00524

1
3
2
2
0   0.541101
1    1.84808

1
4
2
2
0    1.28808
1   0.776349

1
5
2
2
0    2.06403
1   0.484489

1
6
2
2
0    1.68105
1   0.594865

1
7
2
2
0   0.597511
1    1.67361

1
8
2
2
0    1.75921
1   0.568438

1
9
2
2
0    1.53673
1   0.650733

1
10
2
2
0    1.45101
1   0.689173

1
11
2
2
0   0.429052
1    2.33072

1
12
2
2
0    1.74394
1   0.573414

1
13
2
2
0    1.11249
1   0.898888

1
14
2
2
0   0.382595
1    2.61373

1
15
2
2
0   0.482552
1    2.07231

1
16
2
2
0    1.52159
1   0.657208

1
17
2
2
0   0.409287
1    2.44327

1
18
2
2
0    0.85009
1    1.17635

1
19
2
2
0   0.723542
1    1.38209

1
20
2
2
0   0.885843
1    1.12887

1
21
2
2
0   0.907273
1     1.1022

1
22
2
2
0    2.51521
1   0.397581

1
23
2
2
0    0.75649
1     1.3219

1
24
2
2
0    2.49254
1   0.401197

1
25
2
2
0   0.753513
1    1.32712

1
26
2
2
0    1.98227
1   0.504471

1
27
2
2
0   0.552068
1    1.81137

1
28
2
2
0    1.95047
1   0.512696

1
29
2
2
0   0.539693
1    1.85291

1
30
2
2
0   0.895837
1    1.11627

1
31
2
2
0    2.63256
1   0.379859

1
32
2
2
0    2.02593
1   0.493601

1
33
2
2
0    1.51995
1   0.657917

1
34
2
2
0     2.2513
1   0.444188

1
35
2
2
0    2.27016
1   0.440498